NAME : RAT99A.1399.tour
COMMENT : Cost = 0_1399
COMMENT : Found by LKH [Keld Helsgaun] Sun Sep 17 16:52:41 2017
TYPE : TOUR
DIMENSION : 99
TOUR_SECTION
1
11
20
19
29
28
37
38
48
49
50
41
31
30
21
22
23
15
16
24
25
26
36
44
45
54
53
52
51
60
61
62
63
72
81
89
90
99
98
96
94
93
92
91
83
82
73
75
67
78
77
76
84
85
86
95
97
87
88
79
80
71
70
69
68
59
58
57
56
65
66
74
64
55
46
47
39
40
32
33
42
43
34
35
27
17
18
8
9
7
6
5
4
14
13
12
3
2
10
-1
EOF
